0
1 2 -1
1
0 -1
2
0 3 -1
3
2 4 -1
4
3 5 7 -1
5
4 -1
6
-1
7
4 8 -1
8
7 -1
9
-1
10
-1
11
-1
-2
0 335 39 1 636 36 2 399 61 3 400 214 4 346 279 5 296 354 6 514 214 7 584 280 8 641 356 9 515 56 10 754 54 11 754 216 -2
